p tw 155 32551 2 
1 3 
1 4 
1 5 
1 6 
1 7 
1 8 
1 9 
1 10 
1 11 
1 12 
1 13 
1 14 
1 15 
1 16 
1 17 
1 18 
1 19 
1 20 
1 21 
1 22 
1 23 
1 24 
1 25 
1 26 
1 27 
1 28 
1 29 
1 42 
1 48 
1 55 
1 81 
1 94 
1 98 
1 109 
1 111 
1 130 
1 142 
1 145 
1 151 
1 153 
1 154 
2 3 
2 4 
2 5 
2 6 
2 7 
2 8 
2 9 
2 10 
2 11 
2 12 
2 13 
2 14 
2 15 
2 16 
2 20 
2 30 
2 31 
2 32 
2 33 
2 34 
2 35 
2 36 
2 37 
2 38 
2 39 
2 40 
2 41 
2 42 
2 47 
2 58 
2 68 
2 79 
2 103 
2 111 
2 112 
2 113 
2 114 
2 115 
2 116 
2 117 
2 118 
3 4 
3 5 
3 6 
3 7 
3 8 
3 9 
3 10 
3 11 
3 12 
3 13 
3 14 
3 15 
3 17 
3 29 
3 30 
3 31 
3 43 
3 44 
3 45 
3 46 
3 47 
3 48 
3 49 
3 50 
3 51 
3 52 
3 53 
3 54 
3 75 
3 84 
3 88 
3 100 
3 103 
3 128 
3 133 
3 135 
3 138 
3 146 
3 149 
3 153 
4 5 
4 6 
4 7 
4 8 
4 9 
4 10 
4 11 
4 12 
4 13 
4 14 
4 15 
4 18 
4 19 
4 31 
4 33 
4 43 
4 45 
4 55 
4 56 
4 57 
4 58 
4 59 
4 60 
4 61 
4 62 
4 63 
4 64 
4 65 
4 76 
4 77 
4 78 
4 79 
4 80 
4 81 
4 82 
4 83 
4 84 
4 85 
4 86 
5 6 
5 7 
5 8 
5 9 
5 10 
5 11 
5 12 
5 13 
5 14 
5 15 
5 19 
5 21 
5 32 
5 35 
5 44 
5 47 
5 55 
5 57 
5 66 
5 67 
5 68 
5 69 
5 70 
5 71 
5 72 
5 73 
5 74 
5 75 
5 77 
5 87 
5 95 
5 96 
5 97 
5 98 
5 99 
5 100 
5 101 
5 102 
6 7 
6 8 
6 9 
6 10 
6 11 
6 12 
6 13 
6 14 
6 15 
6 20 
6 27 
6 34 
6 35 
6 46 
6 52 
6 56 
6 60 
6 66 
6 74 
6 76 
6 80 
6 87 
6 88 
6 89 
6 90 
6 91 
6 92 
6 93 
6 94 
6 109 
6 114 
6 126 
6 137 
6 140 
6 148 
6 149 
6 150 
7 8 
7 9 
7 10 
7 11 
7 12 
7 13 
7 14 
7 15 
7 22 
7 23 
7 33 
7 36 
7 46 
7 54 
7 56 
7 57 
7 67 
7 73 
7 78 
7 99 
7 103 
7 104 
7 105 
7 106 
7 107 
7 108 
7 109 
7 110 
7 118 
7 123 
7 127 
7 136 
7 139 
7 147 
7 150 
7 153 
8 9 
8 10 
8 11 
8 12 
8 13 
8 14 
8 15 
8 16 
8 28 
8 34 
8 43 
8 51 
8 64 
8 69 
8 71 
8 79 
8 80 
8 88 
8 95 
8 97 
8 104 
8 108 
8 111 
8 119 
8 120 
8 121 
8 122 
8 123 
8 124 
8 128 
8 139 
8 141 
8 148 
8 154 
8 155 
9 10 
9 11 
9 12 
9 13 
9 14 
9 15 
9 17 
9 22 
9 37 
9 41 
9 53 
9 59 
9 63 
9 69 
9 70 
9 77 
9 81 
9 89 
9 92 
9 96 
9 105 
9 112 
9 118 
9 119 
9 125 
9 126 
9 127 
9 128 
9 132 
9 134 
9 141 
9 149 
9 151 
9 152 
10 11 
10 12 
10 13 
10 14 
10 15 
10 23 
10 25 
10 37 
10 39 
10 45 
10 49 
10 60 
10 61 
10 68 
10 71 
10 83 
10 87 
10 91 
10 98 
10 106 
10 107 
10 113 
10 119 
10 120 
10 129 
10 130 
10 131 
10 132 
10 133 
10 134 
10 137 
10 138 
10 139 
11 12 
11 13 
11 14 
11 15 
11 24 
11 28 
11 36 
11 38 
11 48 
11 54 
11 59 
11 61 
11 67 
11 72 
11 76 
11 82 
11 90 
11 97 
11 102 
11 114 
11 117 
11 121 
11 124 
11 126 
11 129 
11 133 
11 134 
11 135 
11 136 
11 143 
11 144 
11 151 
12 13 
12 14 
12 15 
12 25 
12 26 
12 38 
12 42 
12 44 
12 50 
12 58 
12 62 
12 72 
12 84 
12 86 
12 89 
12 93 
12 99 
12 102 
12 104 
12 107 
12 115 
12 122 
12 125 
12 129 
12 130 
12 140 
12 141 
12 146 
12 150 
12 152 
12 155 
13 14 
13 15 
13 24 
13 29 
13 32 
13 40 
13 49 
13 52 
13 63 
13 65 
13 66 
13 83 
13 85 
13 90 
13 96 
13 100 
13 108 
13 110 
13 113 
13 117 
13 122 
13 123 
13 125 
13 131 
13 140 
13 142 
13 143 
13 147 
13 152 
13 154 
14 15 
14 18 
14 27 
14 40 
14 41 
14 50 
14 51 
14 65 
14 70 
14 73 
14 85 
14 86 
14 92 
14 94 
14 95 
14 101 
14 105 
14 106 
14 115 
14 116 
14 124 
14 131 
14 135 
14 136 
14 137 
14 138 
14 144 
14 145 
14 155 
15 21 
15 26 
15 30 
15 39 
15 53 
15 62 
15 64 
15 74 
15 75 
15 78 
15 82 
15 91 
15 93 
15 101 
15 110 
15 112 
15 116 
15 120 
15 121 
15 127 
15 132 
15 142 
15 143 
15 144 
15 145 
15 146 
15 147 
15 148 
16 17 
16 18 
16 19 
16 20 
16 21 
16 22 
16 23 
16 24 
16 25 
16 26 
16 27 
16 28 
16 29 
16 30 
16 31 
16 32 
16 33 
16 34 
16 35 
16 36 
16 37 
16 38 
16 39 
16 40 
16 41 
16 42 
16 43 
16 69 
16 80 
16 88 
16 95 
16 104 
16 111 
16 119 
16 120 
16 121 
16 122 
16 123 
16 124 
17 18 
17 19 
17 20 
17 21 
17 22 
17 23 
17 24 
17 25 
17 26 
17 27 
17 28 
17 29 
17 30 
17 37 
17 43 
17 44 
17 45 
17 46 
17 47 
17 48 
17 49 
17 50 
17 51 
17 52 
17 53 
17 54 
17 59 
17 70 
17 81 
17 89 
17 96 
17 105 
17 112 
17 119 
17 125 
17 126 
17 127 
17 128 
18 19 
18 20 
18 21 
18 22 
18 23 
18 24 
18 25 
18 26 
18 27 
18 28 
18 29 
18 31 
18 40 
18 43 
18 51 
18 55 
18 56 
18 57 
18 58 
18 59 
18 60 
18 61 
18 62 
18 63 
18 64 
18 65 
18 73 
18 86 
18 92 
18 95 
18 105 
18 115 
18 131 
18 135 
18 137 
18 144 
18 145 
19 20 
19 21 
19 22 
19 23 
19 24 
19 25 
19 26 
19 27 
19 28 
19 29 
19 32 
19 33 
19 44 
19 45 
19 55 
19 66 
19 67 
19 68 
19 69 
19 70 
19 71 
19 72 
19 73 
19 74 
19 75 
19 76 
19 77 
19 78 
19 79 
19 80 
19 81 
19 82 
19 83 
19 84 
19 85 
19 86 
20 21 
20 22 
20 23 
20 24 
20 25 
20 26 
20 27 
20 28 
20 29 
20 34 
20 46 
20 47 
20 56 
20 58 
20 66 
20 68 
20 76 
20 79 
20 87 
20 88 
20 89 
20 90 
20 91 
20 92 
20 93 
20 94 
20 103 
20 111 
20 112 
20 113 
20 114 
20 115 
20 116 
20 117 
20 118 
21 22 
21 23 
21 24 
21 25 
21 26 
21 27 
21 28 
21 29 
21 35 
21 39 
21 47 
21 53 
21 57 
21 62 
21 75 
21 77 
21 82 
21 87 
21 93 
21 95 
21 96 
21 97 
21 98 
21 99 
21 100 
21 101 
21 102 
21 110 
21 116 
21 120 
21 127 
21 143 
21 145 
21 148 
22 23 
22 24 
22 25 
22 26 
22 27 
22 28 
22 29 
22 36 
22 41 
22 46 
22 53 
22 57 
22 63 
22 67 
22 69 
22 77 
22 78 
22 92 
22 103 
22 104 
22 105 
22 106 
22 107 
22 108 
22 109 
22 110 
22 118 
22 132 
22 134 
22 141 
22 149 
22 151 
22 152 
23 24 
23 25 
23 26 
23 27 
23 28 
23 29 
23 33 
23 37 
23 45 
23 54 
23 56 
23 60 
23 71 
23 73 
23 87 
23 99 
23 106 
23 113 
23 118 
23 120 
23 123 
23 127 
23 129 
23 130 
23 131 
23 132 
23 133 
23 136 
23 139 
23 147 
23 150 
23 153 
24 25 
24 26 
24 27 
24 28 
24 29 
24 38 
24 40 
24 48 
24 49 
24 59 
24 63 
24 66 
24 67 
24 82 
24 85 
24 90 
24 97 
24 100 
24 108 
24 113 
24 114 
24 121 
24 123 
24 125 
24 129 
24 134 
24 135 
24 136 
24 140 
24 142 
24 143 
25 26 
25 27 
25 28 
25 29 
25 39 
25 42 
25 44 
25 49 
25 58 
25 61 
25 68 
25 83 
25 86 
25 91 
25 93 
25 98 
25 102 
25 104 
25 107 
25 119 
25 125 
25 129 
25 134 
25 137 
25 138 
25 139 
25 146 
25 150 
25 152 
25 155 
26 27 
26 28 
26 29 
26 30 
26 38 
26 50 
26 62 
26 64 
26 72 
26 74 
26 78 
26 84 
26 89 
26 91 
26 99 
26 101 
26 107 
26 112 
26 115 
26 121 
26 122 
26 130 
26 132 
26 140 
26 141 
26 142 
26 144 
26 146 
26 147 
27 28 
27 29 
27 35 
27 41 
27 50 
27 52 
27 60 
27 65 
27 70 
27 74 
27 80 
27 85 
27 94 
27 101 
27 106 
27 109 
27 114 
27 116 
27 124 
27 126 
27 136 
27 137 
27 138 
27 140 
27 148 
27 149 
27 150 
27 155 
28 29 
28 34 
28 36 
28 51 
28 54 
28 61 
28 64 
28 71 
28 72 
28 76 
28 79 
28 97 
28 102 
28 108 
28 117 
28 124 
28 126 
28 128 
28 133 
28 139 
28 141 
28 143 
28 144 
28 148 
28 151 
28 154 
28 155 
29 31 
29 32 
29 52 
29 65 
29 75 
29 83 
29 84 
29 88 
29 90 
29 96 
29 100 
29 103 
29 110 
29 117 
29 122 
29 128 
29 131 
29 133 
29 135 
29 138 
29 146 
29 147 
29 149 
29 152 
29 153 
29 154 
30 31 
30 32 
30 33 
30 34 
30 35 
30 36 
30 37 
30 38 
30 39 
30 40 
30 41 
30 42 
30 43 
30 44 
30 45 
30 46 
30 47 
30 48 
30 49 
30 50 
30 51 
30 52 
30 53 
30 54 
30 64 
30 74 
30 78 
30 91 
30 101 
30 112 
30 121 
30 132 
30 142 
30 144 
30 146 
30 147 
31 32 
31 33 
31 34 
31 35 
31 36 
31 37 
31 38 
31 39 
31 40 
31 41 
31 42 
31 43 
31 55 
31 56 
31 57 
31 58 
31 59 
31 60 
31 61 
31 62 
31 63 
31 64 
31 65 
31 75 
31 84 
31 88 
31 100 
31 103 
31 128 
31 133 
31 135 
31 138 
31 146 
31 149 
31 153 
32 33 
32 34 
32 35 
32 36 
32 37 
32 38 
32 39 
32 40 
32 41 
32 42 
32 44 
32 52 
32 55 
32 65 
32 66 
32 67 
32 68 
32 69 
32 70 
32 71 
32 72 
32 73 
32 74 
32 75 
32 83 
32 90 
32 96 
32 110 
32 117 
32 122 
32 131 
32 147 
32 152 
32 154 
33 34 
33 35 
33 36 
33 37 
33 38 
33 39 
33 40 
33 41 
33 42 
33 45 
33 54 
33 56 
33 73 
33 76 
33 77 
33 78 
33 79 
33 80 
33 81 
33 82 
33 83 
33 84 
33 85 
33 86 
33 99 
33 118 
33 123 
33 127 
33 136 
33 139 
33 147 
33 150 
33 153 
34 35 
34 36 
34 37 
34 38 
34 39 
34 40 
34 41 
34 42 
34 46 
34 51 
34 56 
34 64 
34 66 
34 71 
34 76 
34 79 
34 87 
34 88 
34 89 
34 90 
34 91 
34 92 
34 93 
34 94 
34 97 
34 108 
34 128 
34 139 
34 141 
34 148 
34 154 
34 155 
35 36 
35 37 
35 38 
35 39 
35 40 
35 41 
35 42 
35 47 
35 52 
35 57 
35 60 
35 74 
35 77 
35 80 
35 87 
35 95 
35 96 
35 97 
35 98 
35 99 
35 100 
35 101 
35 102 
35 109 
35 114 
35 126 
35 137 
35 140 
35 148 
35 149 
35 150 
36 37 
36 38 
36 39 
36 40 
36 41 
36 42 
36 46 
36 54 
36 57 
36 61 
36 67 
36 72 
36 76 
36 78 
36 102 
36 103 
36 104 
36 105 
36 106 
36 107 
36 108 
36 109 
36 110 
36 117 
36 124 
36 126 
36 133 
36 143 
36 144 
36 151 
37 38 
37 39 
37 40 
37 41 
37 42 
37 45 
37 59 
37 60 
37 70 
37 71 
37 81 
37 87 
37 89 
37 96 
37 105 
37 106 
37 112 
37 113 
37 119 
37 120 
37 125 
37 126 
37 127 
37 128 
37 129 
37 130 
37 131 
37 132 
37 133 
38 39 
38 40 
38 41 
38 42 
38 48 
38 50 
38 59 
38 62 
38 67 
38 72 
38 82 
38 84 
38 89 
38 90 
38 97 
38 99 
38 107 
38 114 
38 115 
38 121 
38 122 
38 129 
38 130 
38 134 
38 135 
38 136 
38 140 
38 141 
39 40 
39 41 
39 42 
39 49 
39 53 
39 61 
39 62 
39 68 
39 75 
39 82 
39 83 
39 91 
39 93 
39 98 
39 107 
39 110 
39 116 
39 119 
39 120 
39 127 
39 134 
39 137 
39 138 
39 139 
39 143 
39 145 
39 148 
40 41 
40 42 
40 49 
40 51 
40 63 
40 66 
40 73 
40 85 
40 86 
40 92 
40 95 
40 100 
40 105 
40 108 
40 113 
40 115 
40 123 
40 125 
40 131 
40 135 
40 137 
40 140 
40 142 
40 143 
40 144 
40 145 
41 42 
41 50 
41 53 
41 63 
41 65 
41 69 
41 70 
41 77 
41 85 
41 92 
41 94 
41 101 
41 106 
41 116 
41 118 
41 124 
41 132 
41 134 
41 136 
41 138 
41 141 
41 149 
41 151 
41 152 
41 155 
42 44 
42 48 
42 55 
42 58 
42 81 
42 86 
42 93 
42 94 
42 98 
42 102 
42 104 
42 109 
42 111 
42 125 
42 129 
42 130 
42 142 
42 145 
42 146 
42 150 
42 151 
42 152 
42 153 
42 154 
42 155 
43 44 
43 45 
43 46 
43 47 
43 48 
43 49 
43 50 
43 51 
43 52 
43 53 
43 54 
43 55 
43 56 
43 57 
43 58 
43 59 
43 60 
43 61 
43 62 
43 63 
43 64 
43 65 
43 69 
43 80 
43 88 
43 95 
43 104 
43 111 
43 119 
43 120 
43 121 
43 122 
43 123 
43 124 
44 45 
44 46 
44 47 
44 48 
44 49 
44 50 
44 51 
44 52 
44 53 
44 54 
44 55 
44 58 
44 66 
44 67 
44 68 
44 69 
44 70 
44 71 
44 72 
44 73 
44 74 
44 75 
44 86 
44 93 
44 102 
44 104 
44 125 
44 129 
44 146 
44 150 
44 152 
44 155 
45 46 
45 47 
45 48 
45 49 
45 50 
45 51 
45 52 
45 53 
45 54 
45 60 
45 71 
45 76 
45 77 
45 78 
45 79 
45 80 
45 81 
45 82 
45 83 
45 84 
45 85 
45 86 
45 87 
45 106 
45 113 
45 120 
45 129 
45 130 
45 131 
45 132 
45 133 
46 47 
46 48 
46 49 
46 50 
46 51 
46 52 
46 53 
46 54 
46 56 
46 57 
46 66 
46 67 
46 76 
46 78 
46 87 
46 88 
46 89 
46 90 
46 91 
46 92 
46 93 
46 94 
46 103 
46 104 
46 105 
46 106 
46 107 
46 108 
46 109 
46 110 
47 48 
47 49 
47 50 
47 51 
47 52 
47 53 
47 54 
47 57 
47 58 
47 68 
47 77 
47 79 
47 87 
47 95 
47 96 
47 97 
47 98 
47 99 
47 100 
47 101 
47 102 
47 103 
47 111 
47 112 
47 113 
47 114 
47 115 
47 116 
47 117 
47 118 
48 49 
48 50 
48 51 
48 52 
48 53 
48 54 
48 55 
48 59 
48 67 
48 81 
48 82 
48 90 
48 94 
48 97 
48 98 
48 109 
48 111 
48 114 
48 121 
48 129 
48 130 
48 134 
48 135 
48 136 
48 142 
48 145 
48 151 
48 153 
48 154 
49 50 
49 51 
49 52 
49 53 
49 54 
49 61 
49 63 
49 66 
49 68 
49 83 
49 85 
49 91 
49 98 
49 100 
49 107 
49 108 
49 113 
49 119 
49 123 
49 125 
49 134 
49 137 
49 138 
49 139 
49 140 
49 142 
49 143 
50 51 
50 52 
50 53 
50 54 
50 62 
50 65 
50 70 
50 72 
50 84 
50 85 
50 89 
50 94 
50 99 
50 101 
50 106 
50 107 
50 115 
50 116 
50 122 
50 124 
50 130 
50 136 
50 138 
50 140 
50 141 
50 155 
51 52 
51 53 
51 54 
51 64 
51 71 
51 73 
51 79 
51 86 
51 92 
51 95 
51 97 
51 105 
51 108 
51 115 
51 128 
51 131 
51 135 
51 137 
51 139 
51 141 
51 144 
51 145 
51 148 
51 154 
51 155 
52 53 
52 54 
52 60 
52 65 
52 74 
52 80 
52 83 
52 90 
52 96 
52 109 
52 110 
52 114 
52 117 
52 122 
52 126 
52 131 
52 137 
52 140 
52 147 
52 148 
52 149 
52 150 
52 152 
52 154 
53 54 
53 62 
53 63 
53 69 
53 75 
53 77 
53 82 
53 92 
53 93 
53 110 
53 116 
53 118 
53 120 
53 127 
53 132 
53 134 
53 141 
53 143 
53 145 
53 148 
53 149 
53 151 
53 152 
54 56 
54 61 
54 72 
54 73 
54 76 
54 99 
54 102 
54 117 
54 118 
54 123 
54 124 
54 126 
54 127 
54 133 
54 136 
54 139 
54 143 
54 144 
54 147 
54 150 
54 151 
54 153 
55 56 
55 57 
55 58 
55 59 
55 60 
55 61 
55 62 
55 63 
55 64 
55 65 
55 66 
55 67 
55 68 
55 69 
55 70 
55 71 
55 72 
55 73 
55 74 
55 75 
55 81 
55 94 
55 98 
55 109 
55 111 
55 130 
55 142 
55 145 
55 151 
55 153 
55 154 
56 57 
56 58 
56 59 
56 60 
56 61 
56 62 
56 63 
56 64 
56 65 
56 66 
56 73 
56 76 
56 87 
56 88 
56 89 
56 90 
56 91 
56 92 
56 93 
56 94 
56 99 
56 118 
56 123 
56 127 
56 136 
56 139 
56 147 
56 150 
56 153 
57 58 
57 59 
57 60 
57 61 
57 62 
57 63 
57 64 
57 65 
57 67 
57 77 
57 78 
57 87 
57 95 
57 96 
57 97 
57 98 
57 99 
57 100 
57 101 
57 102 
57 103 
57 104 
57 105 
57 106 
57 107 
57 108 
57 109 
57 110 
58 59 
58 60 
58 61 
58 62 
58 63 
58 64 
58 65 
58 68 
58 79 
58 86 
58 93 
58 102 
58 103 
58 104 
58 111 
58 112 
58 113 
58 114 
58 115 
58 116 
58 117 
58 118 
58 125 
58 129 
58 146 
58 150 
58 152 
58 155 
59 60 
59 61 
59 62 
59 63 
59 64 
59 65 
59 67 
59 70 
59 81 
59 82 
59 89 
59 90 
59 96 
59 97 
59 105 
59 112 
59 114 
59 119 
59 121 
59 125 
59 126 
59 127 
59 128 
59 129 
59 134 
59 135 
59 136 
60 61 
60 62 
60 63 
60 64 
60 65 
60 71 
60 74 
60 80 
60 87 
60 106 
60 109 
60 113 
60 114 
60 120 
60 126 
60 129 
60 130 
60 131 
60 132 
60 133 
60 137 
60 140 
60 148 
60 149 
60 150 
61 62 
61 63 
61 64 
61 65 
61 68 
61 72 
61 76 
61 83 
61 91 
61 98 
61 102 
61 107 
61 117 
61 119 
61 124 
61 126 
61 133 
61 134 
61 137 
61 138 
61 139 
61 143 
61 144 
61 151 
62 63 
62 64 
62 65 
62 72 
62 75 
62 82 
62 84 
62 89 
62 93 
62 99 
62 107 
62 110 
62 115 
62 116 
62 120 
62 122 
62 127 
62 130 
62 140 
62 141 
62 143 
62 145 
62 148 
63 64 
63 65 
63 66 
63 69 
63 77 
63 85 
63 92 
63 100 
63 108 
63 113 
63 118 
63 123 
63 125 
63 132 
63 134 
63 140 
63 141 
63 142 
63 143 
63 149 
63 151 
63 152 
64 65 
64 71 
64 74 
64 78 
64 79 
64 91 
64 97 
64 101 
64 108 
64 112 
64 121 
64 128 
64 132 
64 139 
64 141 
64 142 
64 144 
64 146 
64 147 
64 148 
64 154 
64 155 
65 70 
65 83 
65 85 
65 90 
65 94 
65 96 
65 101 
65 106 
65 110 
65 116 
65 117 
65 122 
65 124 
65 131 
65 136 
65 138 
65 147 
65 152 
65 154 
65 155 
66 67 
66 68 
66 69 
66 70 
66 71 
66 72 
66 73 
66 74 
66 75 
66 76 
66 85 
66 87 
66 88 
66 89 
66 90 
66 91 
66 92 
66 93 
66 94 
66 100 
66 108 
66 113 
66 123 
66 125 
66 140 
66 142 
66 143 
67 68 
67 69 
67 70 
67 71 
67 72 
67 73 
67 74 
67 75 
67 78 
67 82 
67 90 
67 97 
67 103 
67 104 
67 105 
67 106 
67 107 
67 108 
67 109 
67 110 
67 114 
67 121 
67 129 
67 134 
67 135 
67 136 
68 69 
68 70 
68 71 
68 72 
68 73 
68 74 
68 75 
68 79 
68 83 
68 91 
68 98 
68 103 
68 107 
68 111 
68 112 
68 113 
68 114 
68 115 
68 116 
68 117 
68 118 
68 119 
68 134 
68 137 
68 138 
68 139 
69 70 
69 71 
69 72 
69 73 
69 74 
69 75 
69 77 
69 80 
69 88 
69 92 
69 95 
69 104 
69 111 
69 118 
69 119 
69 120 
69 121 
69 122 
69 123 
69 124 
69 132 
69 134 
69 141 
69 149 
69 151 
69 152 
70 71 
70 72 
70 73 
70 74 
70 75 
70 81 
70 85 
70 89 
70 94 
70 96 
70 101 
70 105 
70 106 
70 112 
70 116 
70 119 
70 124 
70 125 
70 126 
70 127 
70 128 
70 136 
70 138 
70 155 
71 72 
71 73 
71 74 
71 75 
71 79 
71 87 
71 97 
71 106 
71 108 
71 113 
71 120 
71 128 
71 129 
71 130 
71 131 
71 132 
71 133 
71 139 
71 141 
71 148 
71 154 
71 155 
72 73 
72 74 
72 75 
72 76 
72 84 
72 89 
72 99 
72 102 
72 107 
72 115 
72 117 
72 122 
72 124 
72 126 
72 130 
72 133 
72 140 
72 141 
72 143 
72 144 
72 151 
73 74 
73 75 
73 86 
73 92 
73 95 
73 99 
73 105 
73 115 
73 118 
73 123 
73 127 
73 131 
73 135 
73 136 
73 137 
73 139 
73 144 
73 145 
73 147 
73 150 
73 153 
74 75 
74 78 
74 80 
74 91 
74 101 
74 109 
74 112 
74 114 
74 121 
74 126 
74 132 
74 137 
74 140 
74 142 
74 144 
74 146 
74 147 
74 148 
74 149 
74 150 
75 82 
75 84 
75 88 
75 93 
75 100 
75 103 
75 110 
75 116 
75 120 
75 127 
75 128 
75 133 
75 135 
75 138 
75 143 
75 145 
75 146 
75 148 
75 149 
75 153 
76 77 
76 78 
76 79 
76 80 
76 81 
76 82 
76 83 
76 84 
76 85 
76 86 
76 87 
76 88 
76 89 
76 90 
76 91 
76 92 
76 93 
76 94 
76 102 
76 117 
76 124 
76 126 
76 133 
76 143 
76 144 
76 151 
77 78 
77 79 
77 80 
77 81 
77 82 
77 83 
77 84 
77 85 
77 86 
77 87 
77 92 
77 95 
77 96 
77 97 
77 98 
77 99 
77 100 
77 101 
77 102 
77 118 
77 132 
77 134 
77 141 
77 149 
77 151 
77 152 
78 79 
78 80 
78 81 
78 82 
78 83 
78 84 
78 85 
78 86 
78 91 
78 101 
78 103 
78 104 
78 105 
78 106 
78 107 
78 108 
78 109 
78 110 
78 112 
78 121 
78 132 
78 142 
78 144 
78 146 
78 147 
79 80 
79 81 
79 82 
79 83 
79 84 
79 85 
79 86 
79 97 
79 103 
79 108 
79 111 
79 112 
79 113 
79 114 
79 115 
79 116 
79 117 
79 118 
79 128 
79 139 
79 141 
79 148 
79 154 
79 155 
80 81 
80 82 
80 83 
80 84 
80 85 
80 86 
80 88 
80 95 
80 104 
80 109 
80 111 
80 114 
80 119 
80 120 
80 121 
80 122 
80 123 
80 124 
80 126 
80 137 
80 140 
80 148 
80 149 
80 150 
81 82 
81 83 
81 84 
81 85 
81 86 
81 89 
81 94 
81 96 
81 98 
81 105 
81 109 
81 111 
81 112 
81 119 
81 125 
81 126 
81 127 
81 128 
81 130 
81 142 
81 145 
81 151 
81 153 
81 154 
82 83 
82 84 
82 85 
82 86 
82 90 
82 93 
82 97 
82 110 
82 114 
82 116 
82 120 
82 121 
82 127 
82 129 
82 134 
82 135 
82 136 
82 143 
82 145 
82 148 
83 84 
83 85 
83 86 
83 90 
83 91 
83 96 
83 98 
83 107 
83 110 
83 117 
83 119 
83 122 
83 131 
83 134 
83 137 
83 138 
83 139 
83 147 
83 152 
83 154 
84 85 
84 86 
84 88 
84 89 
84 99 
84 100 
84 103 
84 107 
84 115 
84 122 
84 128 
84 130 
84 133 
84 135 
84 138 
84 140 
84 141 
84 146 
84 149 
84 153 
85 86 
85 94 
85 100 
85 101 
85 106 
85 108 
85 113 
85 116 
85 123 
85 124 
85 125 
85 136 
85 138 
85 140 
85 142 
85 143 
85 155 
86 92 
86 93 
86 95 
86 102 
86 104 
86 105 
86 115 
86 125 
86 129 
86 131 
86 135 
86 137 
86 144 
86 145 
86 146 
86 150 
86 152 
86 155 
87 88 
87 89 
87 90 
87 91 
87 92 
87 93 
87 94 
87 95 
87 96 
87 97 
87 98 
87 99 
87 100 
87 101 
87 102 
87 106 
87 113 
87 120 
87 129 
87 130 
87 131 
87 132 
87 133 
88 89 
88 90 
88 91 
88 92 
88 93 
88 94 
88 95 
88 100 
88 103 
88 104 
88 111 
88 119 
88 120 
88 121 
88 122 
88 123 
88 124 
88 128 
88 133 
88 135 
88 138 
88 146 
88 149 
88 153 
89 90 
89 91 
89 92 
89 93 
89 94 
89 96 
89 99 
89 105 
89 107 
89 112 
89 115 
89 119 
89 122 
89 125 
89 126 
89 127 
89 128 
89 130 
89 140 
89 141 
90 91 
90 92 
90 93 
90 94 
90 96 
90 97 
90 110 
90 114 
90 117 
90 121 
90 122 
90 129 
90 131 
90 134 
90 135 
90 136 
90 147 
90 152 
90 154 
91 92 
91 93 
91 94 
91 98 
91 101 
91 107 
91 112 
91 119 
91 121 
91 132 
91 134 
91 137 
91 138 
91 139 
91 142 
91 144 
91 146 
91 147 
92 93 
92 94 
92 95 
92 105 
92 115 
92 118 
92 131 
92 132 
92 134 
92 135 
92 137 
92 141 
92 144 
92 145 
92 149 
92 151 
92 152 
93 94 
93 102 
93 104 
93 110 
93 116 
93 120 
93 125 
93 127 
93 129 
93 143 
93 145 
93 146 
93 148 
93 150 
93 152 
93 155 
94 98 
94 101 
94 106 
94 109 
94 111 
94 116 
94 124 
94 130 
94 136 
94 138 
94 142 
94 145 
94 151 
94 153 
94 154 
94 155 
95 96 
95 97 
95 98 
95 99 
95 100 
95 101 
95 102 
95 104 
95 105 
95 111 
95 115 
95 119 
95 120 
95 121 
95 122 
95 123 
95 124 
95 131 
95 135 
95 137 
95 144 
95 145 
96 97 
96 98 
96 99 
96 100 
96 101 
96 102 
96 105 
96 110 
96 112 
96 117 
96 119 
96 122 
96 125 
96 126 
96 127 
96 128 
96 131 
96 147 
96 152 
96 154 
97 98 
97 99 
97 100 
97 101 
97 102 
97 108 
97 114 
97 121 
97 128 
97 129 
97 134 
97 135 
97 136 
97 139 
97 141 
97 148 
97 154 
97 155 
98 99 
98 100 
98 101 
98 102 
98 107 
98 109 
98 111 
98 119 
98 130 
98 134 
98 137 
98 138 
98 139 
98 142 
98 145 
98 151 
98 153 
98 154 
99 100 
99 101 
99 102 
99 107 
99 115 
99 118 
99 122 
99 123 
99 127 
99 130 
99 136 
99 139 
99 140 
99 141 
99 147 
99 150 
99 153 
100 101 
100 102 
100 103 
100 108 
100 113 
100 123 
100 125 
100 128 
100 133 
100 135 
100 138 
100 140 
100 142 
100 143 
100 146 
100 149 
100 153 
101 102 
101 106 
101 112 
101 116 
101 121 
101 124 
101 132 
101 136 
101 138 
101 142 
101 144 
101 146 
101 147 
101 155 
102 104 
102 117 
102 124 
102 125 
102 126 
102 129 
102 133 
102 143 
102 144 
102 146 
102 150 
102 151 
102 152 
102 155 
103 104 
103 105 
103 106 
103 107 
103 108 
103 109 
103 110 
103 111 
103 112 
103 113 
103 114 
103 115 
103 116 
103 117 
103 118 
103 128 
103 133 
103 135 
103 138 
103 146 
103 149 
103 153 
104 105 
104 106 
104 107 
104 108 
104 109 
104 110 
104 111 
104 119 
104 120 
104 121 
104 122 
104 123 
104 124 
104 125 
104 129 
104 146 
104 150 
104 152 
104 155 
105 106 
105 107 
105 108 
105 109 
105 110 
105 112 
105 115 
105 119 
105 125 
105 126 
105 127 
105 128 
105 131 
105 135 
105 137 
105 144 
105 145 
106 107 
106 108 
106 109 
106 110 
106 113 
106 116 
106 120 
106 124 
106 129 
106 130 
106 131 
106 132 
106 133 
106 136 
106 138 
106 155 
107 108 
107 109 
107 110 
107 115 
107 119 
107 122 
107 130 
107 134 
107 137 
107 138 
107 139 
107 140 
107 141 
108 109 
108 110 
108 113 
108 123 
108 125 
108 128 
108 139 
108 140 
108 141 
108 142 
108 143 
108 148 
108 154 
108 155 
109 110 
109 111 
109 114 
109 126 
109 130 
109 137 
109 140 
109 142 
109 145 
109 148 
109 149 
109 150 
109 151 
109 153 
109 154 
110 116 
110 117 
110 120 
110 122 
110 127 
110 131 
110 143 
110 145 
110 147 
110 148 
110 152 
110 154 
111 112 
111 113 
111 114 
111 115 
111 116 
111 117 
111 118 
111 119 
111 120 
111 121 
111 122 
111 123 
111 124 
111 130 
111 142 
111 145 
111 151 
111 153 
111 154 
112 113 
112 114 
112 115 
112 116 
112 117 
112 118 
112 119 
112 121 
112 125 
112 126 
112 127 
112 128 
112 132 
112 142 
112 144 
112 146 
112 147 
113 114 
113 115 
113 116 
113 117 
113 118 
113 120 
113 123 
113 125 
113 129 
113 130 
113 131 
113 132 
113 133 
113 140 
113 142 
113 143 
114 115 
114 116 
114 117 
114 118 
114 121 
114 126 
114 129 
114 134 
114 135 
114 136 
114 137 
114 140 
114 148 
114 149 
114 150 
115 116 
115 117 
115 118 
115 122 
115 130 
115 131 
115 135 
115 137 
115 140 
115 141 
115 144 
115 145 
116 117 
116 118 
116 120 
116 124 
116 127 
116 136 
116 138 
116 143 
116 145 
116 148 
116 155 
117 118 
117 122 
117 124 
117 126 
117 131 
117 133 
117 143 
117 144 
117 147 
117 151 
117 152 
117 154 
118 123 
118 127 
118 132 
118 134 
118 136 
118 139 
118 141 
118 147 
118 149 
118 150 
118 151 
118 152 
118 153 
119 120 
119 121 
119 122 
119 123 
119 124 
119 125 
119 126 
119 127 
119 128 
119 134 
119 137 
119 138 
119 139 
120 121 
120 122 
120 123 
120 124 
120 127 
120 129 
120 130 
120 131 
120 132 
120 133 
120 143 
120 145 
120 148 
121 122 
121 123 
121 124 
121 129 
121 132 
121 134 
121 135 
121 136 
121 142 
121 144 
121 146 
121 147 
122 123 
122 124 
122 130 
122 131 
122 140 
122 141 
122 147 
122 152 
122 154 
123 124 
123 125 
123 127 
123 136 
123 139 
123 140 
123 142 
123 143 
123 147 
123 150 
123 153 
124 126 
124 133 
124 136 
124 138 
124 143 
124 144 
124 151 
124 155 
125 126 
125 127 
125 128 
125 129 
125 140 
125 142 
125 143 
125 146 
125 150 
125 152 
125 155 
126 127 
126 128 
126 133 
126 137 
126 140 
126 143 
126 144 
126 148 
126 149 
126 150 
126 151 
127 128 
127 136 
127 139 
127 143 
127 145 
127 147 
127 148 
127 150 
127 153 
128 133 
128 135 
128 138 
128 139 
128 141 
128 146 
128 148 
128 149 
128 153 
128 154 
128 155 
129 130 
129 131 
129 132 
129 133 
129 134 
129 135 
129 136 
129 146 
129 150 
129 152 
129 155 
130 131 
130 132 
130 133 
130 140 
130 141 
130 142 
130 145 
130 151 
130 153 
130 154 
131 132 
131 133 
131 135 
131 137 
131 144 
131 145 
131 147 
131 152 
131 154 
132 133 
132 134 
132 141 
132 142 
132 144 
132 146 
132 147 
132 149 
132 151 
132 152 
133 135 
133 138 
133 143 
133 144 
133 146 
133 149 
133 151 
133 153 
134 135 
134 136 
134 137 
134 138 
134 139 
134 141 
134 149 
134 151 
134 152 
135 136 
135 137 
135 138 
135 144 
135 145 
135 146 
135 149 
135 153 
136 138 
136 139 
136 147 
136 150 
136 153 
136 155 
137 138 
137 139 
137 140 
137 144 
137 145 
137 148 
137 149 
137 150 
138 139 
138 146 
138 149 
138 153 
138 155 
139 141 
139 147 
139 148 
139 150 
139 153 
139 154 
139 155 
140 141 
140 142 
140 143 
140 148 
140 149 
140 150 
141 148 
141 149 
141 151 
141 152 
141 154 
141 155 
142 143 
142 144 
142 145 
142 146 
142 147 
142 151 
142 153 
142 154 
143 144 
143 145 
143 148 
143 151 
144 145 
144 146 
144 147 
144 151 
145 148 
145 151 
145 153 
145 154 
146 147 
146 149 
146 150 
146 152 
146 153 
146 155 
147 150 
147 152 
147 153 
147 154 
148 149 
148 150 
148 154 
148 155 
149 150 
149 151 
149 152 
149 153 
150 152 
150 153 
150 155 
151 152 
151 153 
151 154 
152 154 
152 155 
153 154 
154 155 
